r = [
0,33,2,77,77,18,46,23,57,20,17,0
];
p = [
0,20,10,18,13,22,29,16,17,8,1,0
];
e = [
0,8,15,7,11,9,14,14,14,5,2,0
];
d = [
0,112,77,160,152,93,122,99,140,89,100,162
];
d_bar = [
0,114,78,162,153,95,125,101,142,90,101,162
];
w = [
0,4,15,3.5,11,4.5,4.666666667,7,7,5,2,0
];
